190 300 45 159 51 5 82 196 58 66 87 194 9 19 140 69 48 36 172 136 47 171 64 38 143 20 37 139 168 181 103 37 22 99 148 24 104 29 19 161 95 57 106 55 27 197 75 27 33 199 162 31 169 25 68 63 197 104 153 116 36 8 152 9 106 51 32 9 80 3 122 126 59 179 132 86 176 6 64 8 4 25 38 124 1 57 186 197 161 91 64 148 98 168 157 3 18 140 164 97 142 37 174 1 15 105 38 190 111 101 149 66 77 186 142 77 43 127 26 155 169 89 54 66 56 162 21 74 102 184 122 43 172 96 195 186 152 184 128 62 84 76 80 160 14 21 189 8 99 14 162 68 102 167 85 158 81 105 183 182 40 104 176 11 151 123 149 103 106 76 116 190 151 195 101 116 167 89 123 66 102 36 85 156 3 169 65 83 26 47 16 65 